============================[ Problem Statistics ]=============================|                                                                             ||  Number of variables:          4242                                         ||  Number of clauses:            9752                                         ||  Parse time:                   0.18 s                                       ||                                                                             |============================[ Search Statistics ]==============================| Conflicts |          ORIGINAL         |          LEARNT          | Progress ||           |    Vars  Clauses Literals |    Limit  Clauses Lit/Cl |          |==============================================================================================================================================================restarts              : 1conflicts             : 93             (309 /sec)decisions             : 178            (0.00 % random) (591 /sec)propagations          : 8245           (27392 /sec)conflict literals     : 4850           (95.99 % deleted)CPU time              : 0.301 sSATISFIABLE